c Created with the Wolfram Language : www.wolfram.com
c 
p edge 90 598
e 1 5
e 3 5
e 1 7
e 7 8
e 1 11
e 8 11
e 2 12
e 3 12
e 8 12
e 1 13
e 2 13
e 9 13
e 2 14
e 3 14
e 4 14
e 7 14
e 12 14
e 13 14
e 2 15
e 3 16
e 4 16
e 2 17
e 13 18
e 14 18
e 16 18
e 1 19
e 15 19
e 5 20
e 12 21
e 6 22
e 8 22
e 9 22
e 11 22
e 7 23
e 9 23
e 17 23
e 12 24
e 17 24
e 6 25
e 13 25
e 22 25
e 12 26
e 19 26
e 13 27
e 25 27
e 6 28
e 12 29
e 19 29
e 8 30
e 11 30
e 12 30
e 18 30
e 22 30
e 1 31
e 7 31
e 28 31
e 30 31
e 2 32
e 7 32
e 17 32
e 19 32
e 26 32
e 1 33
e 9 33
e 10 33
e 16 33
e 19 33
e 24 33
e 1 35
e 3 35
e 14 35
e 19 35
e 22 35
e 24 35
e 26 35
e 5 36
e 14 36
e 32 36
e 1 37
e 4 37
e 8 37
e 9 37
e 12 37
e 19 37
e 25 37
e 33 37
e 36 37
e 13 38
e 22 38
e 26 38
e 29 38
e 34 38
e 16 39
e 20 39
e 23 39
e 33 39
e 35 39
e 36 39
e 19 40
e 26 40
e 29 40
e 34 40
e 36 40
e 4 41
e 9 41
e 27 41
e 39 41
e 14 42
e 40 42
e 3 43
e 6 43
e 16 43
e 17 43
e 25 43
e 26 43
e 32 43
e 41 43
e 42 43
e 8 44
e 14 44
e 34 44
e 39 44
e 4 45
e 8 45
e 27 45
e 37 45
e 15 46
e 18 46
e 19 46
e 23 46
e 28 46
e 31 46
e 44 46
e 5 47
e 10 47
e 17 47
e 29 47
e 33 47
e 43 47
e 1 48
e 2 48
e 13 48
e 20 48
e 22 48
e 23 48
e 33 48
e 42 48
e 45 48
e 46 48
e 2 49
e 10 49
e 40 49
e 41 49
e 42 49
e 46 49
e 5 50
e 7 50
e 9 50
e 16 50
e 29 50
e 35 50
e 45 50
e 6 51
e 7 51
e 8 51
e 9 51
e 15 51
e 29 51
e 43 51
e 7 52
e 17 52
e 22 52
e 36 52
e 41 52
e 7 53
e 10 53
e 14 53
e 24 53
e 32 53
e 37 53
e 44 53
e 48 53
e 49 53
e 14 54
e 17 54
e 20 54
e 28 54
e 29 54
e 40 54
e 42 54
e 43 54
e 52 54
e 20 55
e 29 55
e 32 55
e 36 55
e 37 55
e 40 55
e 42 55
e 45 55
e 46 55
e 48 55
e 51 55
e 10 56
e 11 56
e 14 56
e 20 56
e 21 56
e 26 56
e 33 56
e 35 56
e 45 56
e 3 57
e 4 57
e 7 57
e 8 57
e 12 57
e 13 57
e 23 57
e 30 57
e 40 57
e 46 57
e 49 57
e 51 57
e 56 57
e 7 58
e 12 58
e 16 58
e 19 58
e 20 58
e 27 58
e 31 58
e 33 58
e 34 58
e 38 58
e 40 58
e 42 58
e 51 58
e 56 58
e 9 59
e 12 59
e 22 59
e 24 59
e 34 59
e 39 59
e 40 59
e 48 59
e 49 59
e 52 59
e 54 59
e 57 59
e 1 60
e 5 60
e 12 60
e 18 60
e 33 60
e 38 60
e 39 60
e 49 60
e 57 60
e 1 61
e 11 61
e 16 61
e 24 61
e 44 61
e 48 61
e 51 61
e 53 61
e 57 61
e 59 61
e 1 62
e 12 62
e 23 62
e 29 62
e 31 62
e 34 62
e 51 62
e 54 62
e 60 62
e 27 63
e 28 63
e 29 63
e 36 63
e 1 64
e 4 64
e 8 64
e 9 64
e 10 64
e 11 64
e 14 64
e 16 64
e 17 64
e 19 64
e 25 64
e 29 64
e 47 64
e 50 64
e 53 64
e 60 64
e 62 64
e 1 65
e 2 65
e 16 65
e 17 65
e 25 65
e 29 65
e 37 65
e 40 65
e 41 65
e 42 65
e 52 65
e 54 65
e 55 65
e 56 65
e 1 66
e 13 66
e 18 66
e 21 66
e 29 66
e 56 66
e 63 66
e 22 67
e 28 67
e 31 67
e 36 67
e 37 67
e 42 67
e 43 67
e 44 67
e 47 67
e 48 67
e 55 67
e 6 68
e 16 68
e 20 68
e 25 68
e 27 68
e 34 68
e 38 68
e 43 68
e 50 68
e 52 68
e 54 68
e 57 68
e 64 68
e 5 69
e 11 69
e 12 69
e 21 69
e 23 69
e 27 69
e 28 69
e 39 69
e 41 69
e 42 69
e 55 69
e 59 69
e 60 69
e 2 70
e 8 70
e 25 70
e 34 70
e 39 70
e 50 70
e 58 70
e 61 70
e 65 70
e 68 70
e 6 71
e 9 71
e 17 71
e 33 71
e 39 71
e 40 71
e 45 71
e 50 71
e 56 71
e 58 71
e 62 71
e 67 71
e 11 72
e 13 72
e 17 72
e 18 72
e 21 72
e 26 72
e 36 72
e 40 72
e 54 72
e 63 72
e 1 73
e 3 73
e 8 73
e 11 73
e 15 73
e 16 73
e 25 73
e 26 73
e 37 73
e 39 73
e 41 73
e 43 73
e 48 73
e 62 73
e 14 74
e 33 74
e 35 74
e 39 74
e 42 74
e 44 74
e 51 74
e 56 74
e 59 74
e 65 74
e 66 74
e 67 74
e 6 75
e 7 75
e 15 75
e 22 75
e 35 75
e 55 75
e 59 75
e 61 75
e 68 75
e 73 75
e 4 76
e 7 76
e 8 76
e 11 76
e 14 76
e 16 76
e 21 76
e 26 76
e 36 76
e 49 76
e 52 76
e 71 76
e 75 76
e 3 77
e 11 77
e 18 77
e 20 77
e 39 77
e 40 77
e 54 77
e 57 77
e 58 77
e 63 77
e 67 77
e 1 78
e 15 78
e 26 78
e 30 78
e 34 78
e 37 78
e 44 78
e 46 78
e 52 78
e 61 78
e 72 78
e 2 79
e 3 79
e 13 79
e 49 79
e 51 79
e 76 79
e 15 80
e 21 80
e 38 80
e 44 80
e 45 80
e 53 80
e 56 80
e 57 80
e 72 80
e 78 80
e 7 81
e 24 81
e 27 81
e 45 81
e 47 81
e 49 81
e 50 81
e 55 81
e 76 81
e 7 82
e 9 82
e 15 82
e 17 82
e 43 82
e 51 82
e 59 82
e 60 82
e 61 82
e 68 82
e 6 83
e 11 83
e 13 83
e 14 83
e 18 83
e 19 83
e 22 83
e 23 83
e 25 83
e 34 83
e 48 83
e 60 83
e 64 83
e 72 83
e 74 83
e 78 83
e 2 84
e 17 84
e 33 84
e 34 84
e 38 84
e 41 84
e 53 84
e 57 84
e 58 84
e 60 84
e 80 84
e 81 84
e 83 84
e 24 85
e 33 85
e 34 85
e 66 85
e 72 85
e 76 85
e 13 86
e 24 86
e 29 86
e 30 86
e 33 86
e 34 86
e 35 86
e 40 86
e 45 86
e 46 86
e 52 86
e 77 86
e 84 86
e 5 87
e 6 87
e 7 87
e 25 87
e 26 87
e 28 87
e 30 87
e 31 87
e 34 87
e 45 87
e 46 87
e 50 87
e 53 87
e 56 87
e 66 87
e 67 87
e 7 88
e 8 88
e 13 88
e 26 88
e 32 88
e 50 88
e 53 88
e 60 88
e 63 88
e 76 88
e 80 88
e 87 88
e 5 89
e 7 89
e 30 89
e 32 89
e 34 89
e 48 89
e 50 89
e 51 89
e 65 89
e 67 89
e 83 89
e 3 90
e 8 90
e 16 90
e 17 90
e 18 90
e 26 90
e 47 90
e 51 90
e 61 90
e 68 90
e 70 90
e 79 90
e 85 90
e 86 90
e 87 90
